language ESSENCE' 1.0
letting initGrid be [
    [1, 1, 2, 2, 3, 1, 1],
[4, 5, 6, 5, 4, 4, 1],
[3, 6, 3, 1, 1, 5, 1],
[3, 3, 2, 3, 1, 2, 5],
[4, 4, 5, 6, 6, 2, 2],
[5, 1, 5, 3, 1, 6, 2],
[1, 3, 4, 5, 5, 3, 1]
    ]
letting goalBlocksRemaining be 6
letting noSteps be 12
